c User generated cnf file
p cnf 6 26
3 -4 6 0 
2 1 -3 0 
-1 2 2 0 
-3 1 1 0 
4 4 -5 0 
2 -3 5 0 
5 1 -6 0 
-3 3 1 0 
2 -6 6 0 
5 2 -1 0 
-3 2 3 0 
6 -3 3 0 
4 -5 4 0 
3 5 -5 0 
5 -5 5 0 
-5 1 3 0 
4 -2 1 0 
6 5 -5 0 
2 -3 5 0 
-5 1 3 0 
-2 2 2 0 
1 3 -6 0 
5 5 -5 0 
-3 6 4 0 
-3 4 1 0 
1 2 -2 0 
